jpf-symbc-bounded/src/examples/symbolicheap/bounded/bounddb/FibHeap-02.cnf
p cnf 319 361               
2 -86 0
33 -86 0
-2 -33 86 0
-20 91 0
-7 88 0
-29 88 0
7 29 -88 0
-88 91 0
20 88 -91 0
-86 -91 96 0
-91 -103 0
-2 -103 0
91 2 103 0
103 -91 120 0
2 -120 132 0
-96 -132 133 0
91 -2 134 0
-133 -134 135 0
6 -108 0
91 -108 0
108 -7 114 0
-103 -114 124 0
-96 -124 125 0
-19 -91 105 0
-105 -106 0
20 -106 0
106 -2 126 0
-125 -126 127 0
-2 -1 -34 0
34 -36 0
1 2 -35 0
35 -36 0
-4 -3 -37 0
37 -41 0
-3 38 0
-4 38 0
3 4 -38 0
-38 -5 -39 0
39 -41 0
5 38 -40 0
40 -41 0
-7 -6 -42 0
-10 -9 -44 0
44 -46 0
9 10 -45 0
45 -46 0
46 -50 0
-12 -11 -47 0
47 -49 0
11 12 -48 0
48 -49 0
49 -50 0
15 -54 0
-14 -13 -51 0
51 -53 0
13 14 -52 0
52 -53 0
53 -54 0
-18 -17 -55 0
-20 -19 -57 0
-27 -26 -59 0
-29 -28 -61 0
-19 58 0
-20 58 0
19 20 -58 0
-16 -58 63 0
-63 65 0
-17 56 0
-18 56 0
17 18 -56 0
-21 -56 64 0
-64 65 0
-65 -76 0
16 58 -66 0
66 -68 0
21 56 -67 0
67 -68 0
68 -75 0
-28 62 0
-29 62 0
28 29 -62 0
25 62 -69 0
69 -71 0
-26 60 0
-27 60 0
26 27 -60 0
30 60 -70 0
70 -71 0
71 -74 0
23 -73 0
22 24 -72 0
72 -73 0
73 -74 0
74 -75 0
75 -76 0
76 -84 0
-22 -24 82 0
-82 -83 0
-25 -62 77 0
-77 79 0
-30 -60 78 0
-78 79 0
-79 -81 0
8 -80 0
6 7 -43 0
43 -80 0
80 -81 0
81 -83 0
83 -84 0
-3 33 -136 0
136 -139 0
-4 33 -137 0
137 -139 0
-5 33 -138 0
138 -139 0
-1 33 -140 0
140 -142 0
-2 33 -141 0
141 -142 0
-86 23 -187 0
187 -199 0
16 -189 0
25 -189 0
17 -192 0
29 -192 0
189 192 -195 0
195 -198 0
-20 -25 190 0
-190 196 0
-18 -29 193 0
-193 196 0
-196 -197 0
-19 -25 188 0
-188 194 0
-21 -29 191 0
-191 194 0
-194 -197 0
197 -198 0
198 -199 0
199 -215 0
7 -201 0
-26 161 0
25 -149 0
26 -149 0
-25 -26 149 0
-149 156 0
26 -151 0
27 -151 0
-26 -27 151 0
-151 156 0
149 151 -156 0
-156 161 0
26 156 -161 0
161 -201 0
-7 -161 201 0
-201 -7 -203 0
201 7 -203 0
-7 7 -203 0
-201 7 203 0
201 -7 203 0
7 -7 203 0
-203 -204 0
-201 -204 0
203 201 204 0
-13 204 -208 0
208 -210 0
-201 -205 0
203 -205 0
201 -203 205 0
-14 205 -209 0
209 -210 0
210 -214 0
-201 -203 207 0
-207 -213 0
203 -201 206 0
-206 -213 0
-204 13 -211 0
211 -213 0
-205 14 -212 0
212 -213 0
213 -214 0
214 -215 0
215 -232 0
29 25 216 0
-28 -216 217 0
-217 -223 0
-10 12 -220 0
-7 220 -222 0
222 -223 0
223 -231 0
-7 -224 0
6 -224 0
-23 -201 225 0
-225 228 0
-7 -24 226 0
-226 228 0
-228 -229 0
7 -227 0
22 -227 0
227 -229 0
224 229 -230 0
230 -231 0
231 -232 0
-86 232 -233 0
233 -263 0
86 -163 0
-88 159 0
25 -144 0
88 -144 0
-25 -88 144 0
-144 154 0
27 -147 0
88 -147 0
-27 -88 147 0
-147 154 0
144 147 -154 0
-154 159 0
88 154 -159 0
159 -163 0
-86 -159 163 0
-201 -255 0
15 -254 0
-29 178 0
-25 -29 166 0
-166 174 0
-27 -29 169 0
-169 174 0
-174 178 0
-86 -178 182 0
-22 -237 0
24 -237 0
237 -240 0
-10 -86 185 0
-185 12 -238 0
238 -240 0
-182 240 -241 0
241 -253 0
20 -244 0
26 -244 0
18 -247 0
27 -247 0
244 247 -250 0
250 -252 0
-16 -26 243 0
-243 249 0
-17 -27 246 0
-246 249 0
-249 -251 0
-19 -26 242 0
-242 248 0
-21 -27 245 0
-245 248 0
-248 -251 0
251 -252 0
252 -253 0
253 -254 0
254 -255 0
255 -261 0
27 26 256 0
-30 -256 257 0
-257 -260 0
8 -260 0
260 -261 0
-163 261 -262 0
262 -263 0
263 -281 0
3 -264 0
33 -264 0
-3 -33 264 0
-86 -163 -267 0
86 163 -267 0
-163 163 -267 0
-86 163 267 0
86 -163 267 0
163 -163 267 0
-267 -268 0
-163 -268 0
267 163 268 0
-264 268 -272 0
272 -275 0
4 -265 0
33 -265 0
-4 -33 265 0
-163 -269 0
267 -269 0
163 -267 269 0
-265 269 -273 0
273 -275 0
5 -266 0
33 -266 0
-5 -33 266 0
-267 -270 0
163 -270 0
267 -163 270 0
-266 270 -274 0
274 -275 0
275 -280 0
-163 -267 271 0
-271 -279 0
-268 264 -276 0
276 -279 0
-269 265 -277 0
277 -279 0
-270 266 -278 0
278 -279 0
279 -280 0
280 -281 0
31 -282 0
33 -282 0
-31 -33 282 0
-282 86 -312 0
312 -314 0
32 -283 0
33 -283 0
-32 -33 283 0
86 -310 0
-91 306 0
91 -291 0
-16 284 0
-25 284 0
16 25 -284 0
284 -291 0
-91 -284 291 0
-291 301 0
91 -294 0
-18 286 0
-27 286 0
18 27 -286 0
286 -294 0
-91 -286 294 0
-294 301 0
291 294 -301 0
-301 306 0
91 301 -306 0
306 -310 0
-86 -306 310 0
-283 310 -313 0
313 -314 0
314 -318 0
-86 282 -315 0
315 -317 0
-310 283 -316 0
316 -317 0
317 -318 0
-135 0
-127 0
33 0
36 0
41 0
42 0
50 0
54 0
55 0
57 0
59 0
61 0
84 0
139 0
142 0
281 0
318 0
